Minimize
  - 111 y_0 - 70 y_1 - 86 y_2 - 96 y_3 - 73 y_4 - 20 y_5 - 47 y_6 - 75 y_7
   - 43 y_8 - 69 y_9 - 59 y_10 - 54 y_11 - 85 y_13 - 64 y_14 - 74 y_15
   - 63 y_16 - 35 y_17 - 81 y_18 - 31 y_19 - 11 y_20 - 4 y_21 - 79 y_22
   - 60 y_23 - 41 y_24 - 52 y_25 - 65 y_26 - 87 y_27 - 124 y_28 - 32 y_29
   - 122 y_30 - 86 y_31 - 80 y_32 - 25 y_33 - 85 y_34 - 89 y_35 - 40 y_36
   - 62 y_37 - 56 y_38 - 98 y_39 - 63 y_40 - 114 y_41 - 74 y_42 - 48 y_43
   - 89 y_44 - 71 y_45 - 113 y_46 - 76 y_47 - 83 y_48 - 21 y_49 - 45 y_50
   - 122 y_51 - 45 y_52 - 60 y_53 - 71 y_54 - 59 y_55 - 115 y_56 - 75 y_57
   - 44 y_58 - 96 y_59 - 81 y_60 - 76 y_61 - 64 y_62 - 105 y_63 - 72 y_64
   - 84 y_65 - 43 y_66 - 122 y_67 - 32 y_68 - 97 y_69 - 87 y_70 - 72 y_71
   - 85 y_72 - 25 y_73 - 87 y_74 - 96 y_75 - 119 y_76 - 82 y_77 - 51 y_78
   - 83 y_79 - 42 y_80 - 87 y_81 - 80 y_82 - 86 y_83 - 61 y_84 - 21 y_85
   - 88 y_86 - 103 y_87 - 75 y_88 - 92 y_89 - 102 y_90 - 63 y_91 - 63 y_92
   - 63 y_93 - 44 y_94 - 67 y_95 - 84 y_96 - 105 y_97 - 122 y_98 - 72 y_99
   + 7101 Constant
Subject To
 c_0: y_68 = 1
 c_1_0: y_0 + y_3 + y_28 + y_30 + y_41 + y_46 + y_51 + y_56 + y_63 + y_67
   + y_76 + y_98 >= 1
 c_1_1: y_1 + y_2 + y_10 + y_34 + y_37 + y_45 + y_48 + y_54 + y_71 + y_79
   + y_91 + y_92 + y_99 >= 1
 c_1_2: y_1 + y_2 + y_3 + y_7 + y_9 + y_32 + y_34 + y_48 + y_54 + y_61
   + y_77 + y_79 + y_90 + y_99 >= 1
 c_1_3: y_0 + y_2 + y_3 + y_32 + y_41 + y_46 + y_48 + y_63 + y_77 + y_79
   + y_90 >= 1
 c_1_4: y_4 + y_13 + y_16 + y_22 + y_27 + y_31 + y_53 + y_55 + y_62 + y_72
   + y_74 + y_82 + y_96 >= 1
 c_1_5: y_5 + y_12 + y_17 + y_19 + y_20 + y_21 + y_33 + y_49 + y_73 + y_85
   >= 1
 c_1_6: y_6 + y_10 + y_17 + y_19 + y_37 + y_66 + y_78 + y_80 + y_91 + y_92
   >= 1
 c_1_7: y_2 + y_7 + y_9 + y_23 + y_26 + y_32 + y_37 + y_40 + y_48 + y_60
   + y_61 + y_64 + y_65 + y_70 + y_77 + y_81 + y_83 + y_84 + y_88 >= 1
 c_1_8: y_8 + y_11 + y_24 + y_25 + y_29 + y_36 + y_38 + y_43 + y_52 + y_53
   + y_55 + y_58 + y_66 + y_68 + y_94 >= 1
 c_1_9: y_2 + y_7 + y_9 + y_23 + y_26 + y_32 + y_37 + y_40 + y_48 + y_54
   + y_60 + y_61 + y_64 + y_77 + y_78 + y_79 + y_83 + y_84 + y_88 + y_91
   >= 1
 c_1_10: y_1 + y_6 + y_10 + y_37 + y_40 + y_45 + y_54 + y_71 + y_91 + y_92
   + y_99 >= 1
 c_1_11: y_8 + y_11 + y_23 + y_24 + y_38 + y_43 + y_52 + y_53 + y_58 + y_64
   + y_66 + y_78 + y_84 + y_93 + y_94 >= 1
 c_1_12: y_5 + y_12 + y_20 + y_21 >= 1
 c_1_13: y_4 + y_13 + y_22 + y_27 + y_31 + y_72 + y_74 + y_82 + y_86 + y_96
   >= 1
 c_1_14: y_14 + y_15 + y_18 + y_45 + y_50 + y_57 + y_71 + y_92 + y_95 >= 1
 c_1_15: y_14 + y_15 + y_18 + y_45 + y_57 + y_71 + y_92 + y_95 >= 1
 c_1_16: y_4 + y_16 + y_25 + y_53 + y_55 + y_62 >= 1
 c_1_17: y_5 + y_6 + y_17 + y_19 + y_49 + y_66 + y_73 + y_78 + y_80 >= 1
 c_1_18: y_14 + y_15 + y_18 + y_45 + y_57 + y_71 + y_95 >= 1
 c_1_19: y_5 + y_6 + y_17 + y_19 + y_49 + y_66 + y_73 >= 1
 c_1_20: y_5 + y_12 + y_20 + y_21 + y_49 + y_73 + y_85 >= 1
 c_1_21: y_5 + y_12 + y_20 + y_21 + y_49 >= 1
 c_1_22: y_4 + y_13 + y_22 + y_27 + y_31 + y_44 + y_53 + y_62 + y_72 + y_74
   + y_82 + y_86 + y_96 >= 1
 c_1_23: y_7 + y_9 + y_11 + y_23 + y_26 + y_37 + y_38 + y_40 + y_43 + y_52
   + y_61 + y_64 + y_66 + y_78 + y_84 + y_88 + y_93 + y_94 >= 1
 c_1_24: y_8 + y_11 + y_24 + y_25 + y_29 + y_36 + y_38 + y_43 + y_52 + y_58
   + y_66 + y_68 + y_78 + y_94 >= 1
 c_1_25: y_8 + y_16 + y_24 + y_25 + y_36 + y_53 + y_55 + y_58 + y_62 + y_68
   + y_94 >= 1
 c_1_26: y_7 + y_9 + y_23 + y_26 + y_32 + y_37 + y_40 + y_54 + y_60 + y_61
   + y_64 + y_77 + y_78 + y_84 + y_88 + y_91 >= 1
 c_1_27: y_4 + y_13 + y_22 + y_27 + y_31 + y_39 + y_42 + y_44 + y_72 + y_74
   + y_82 + y_86 + y_96 >= 1
 c_1_28: y_0 + y_28 + y_30 + y_41 + y_46 + y_51 + y_63 + y_67 + y_76 + y_98
   >= 1
 c_1_29: y_8 + y_24 + y_29 + y_36 + y_43 + y_49 + y_52 + y_58 + y_66 + y_68
   + y_73 + y_94 >= 1
 c_1_30: y_0 + y_28 + y_30 + y_41 + y_51 + y_56 + y_63 + y_67 + y_76 + y_98
   >= 1
 c_1_31: y_4 + y_13 + y_22 + y_27 + y_31 + y_44 + y_72 + y_74 + y_82 + y_86
   + y_96 >= 1
 c_1_32: y_2 + y_3 + y_7 + y_9 + y_26 + y_32 + y_35 + y_40 + y_48 + y_60
   + y_61 + y_64 + y_65 + y_70 + y_77 + y_79 + y_81 + y_83 + y_84 + y_88
   + y_89 >= 1
 c_1_33: y_5 + y_33 + y_49 + y_50 + y_73 + y_80 + y_85 >= 1
 c_1_34: y_1 + y_2 + y_34 + y_48 + y_54 + y_71 + y_75 + y_79 + y_90 + y_97
   + y_99 >= 1
 c_1_35: y_32 + y_35 + y_47 + y_59 + y_60 + y_64 + y_65 + y_69 + y_70
   + y_81 + y_83 + y_87 + y_88 + y_89 >= 1
 c_1_36: y_8 + y_24 + y_25 + y_29 + y_36 + y_52 + y_55 + y_58 + y_68 + y_94
   >= 1
 c_1_37: y_1 + y_6 + y_7 + y_9 + y_10 + y_23 + y_26 + y_37 + y_40 + y_54
   + y_61 + y_78 + y_84 + y_91 + y_92 + y_99 >= 1
 c_1_38: y_8 + y_11 + y_23 + y_24 + y_38 + y_42 + y_43 + y_47 + y_52 + y_53
   + y_58 + y_64 + y_66 + y_78 + y_93 + y_94 >= 1
 c_1_39: y_27 + y_39 + y_44 + y_69 + y_72 + y_74 + y_86 + y_96 >= 1
 c_1_40: y_7 + y_9 + y_10 + y_23 + y_26 + y_32 + y_37 + y_40 + y_54 + y_60
   + y_61 + y_64 + y_77 + y_78 + y_84 + y_88 + y_91 >= 1
 c_1_41: y_0 + y_3 + y_28 + y_30 + y_41 + y_46 + y_51 + y_63 + y_67 + y_76
   + y_98 >= 1
 c_1_42: y_27 + y_38 + y_42 + y_44 + y_47 + y_53 + y_64 + y_65 + y_82
   + y_86 + y_93 + y_96 >= 1
 c_1_43: y_8 + y_11 + y_23 + y_24 + y_29 + y_38 + y_43 + y_52 + y_58 + y_66
   + y_78 + y_84 + y_93 + y_94 >= 1
 c_1_44: y_22 + y_27 + y_31 + y_39 + y_42 + y_44 + y_47 + y_69 + y_72
   + y_74 + y_82 + y_86 + y_96 >= 1
 c_1_45: y_1 + y_10 + y_14 + y_15 + y_18 + y_45 + y_54 + y_57 + y_71 + y_92
   + y_95 + y_99 >= 1
 c_1_46: y_0 + y_3 + y_28 + y_41 + y_46 + y_51 + y_63 + y_67 + y_76 + y_90
   + y_98 >= 1
 c_1_47: y_35 + y_38 + y_42 + y_44 + y_47 + y_60 + y_64 + y_65 + y_70
   + y_81 + y_83 + y_88 + y_89 + y_93 >= 1
 c_1_48: y_1 + y_2 + y_3 + y_7 + y_9 + y_32 + y_34 + y_48 + y_54 + y_60
   + y_61 + y_77 + y_79 + y_88 + y_99 >= 1
 c_1_49: y_5 + y_17 + y_19 + y_20 + y_21 + y_29 + y_33 + y_49 + y_73 + y_85
   >= 1
 c_1_50: y_14 + y_33 + y_50 + y_80 >= 1
 c_1_51: y_0 + y_28 + y_30 + y_41 + y_46 + y_51 + y_63 + y_67 + y_76 + y_98
   >= 1
 c_1_52: y_8 + y_11 + y_23 + y_24 + y_29 + y_36 + y_38 + y_43 + y_52 + y_53
   + y_58 + y_66 + y_68 + y_78 + y_93 + y_94 >= 1
 c_1_53: y_4 + y_8 + y_11 + y_16 + y_22 + y_25 + y_38 + y_42 + y_52 + y_53
   + y_55 + y_58 + y_62 + y_82 + y_93 + y_94 >= 1
 c_1_54: y_1 + y_2 + y_9 + y_10 + y_26 + y_34 + y_37 + y_40 + y_45 + y_48
   + y_54 + y_61 + y_71 + y_77 + y_79 + y_84 + y_91 + y_92 + y_99 >= 1
 c_1_55: y_4 + y_8 + y_16 + y_25 + y_36 + y_53 + y_55 + y_62 >= 1
 c_1_56: y_0 + y_30 + y_56 + y_59 + y_63 + y_87 >= 1
 c_1_57: y_14 + y_15 + y_18 + y_45 + y_57 + y_71 + y_95 >= 1
 c_1_58: y_8 + y_11 + y_24 + y_25 + y_29 + y_36 + y_38 + y_43 + y_52 + y_53
   + y_58 + y_66 + y_68 + y_93 + y_94 >= 1
 c_1_59: y_35 + y_56 + y_59 + y_60 + y_63 + y_65 + y_69 + y_70 + y_81
   + y_83 + y_87 + y_89 >= 1
 c_1_60: y_7 + y_9 + y_26 + y_32 + y_35 + y_40 + y_47 + y_48 + y_59 + y_60
   + y_61 + y_64 + y_65 + y_70 + y_77 + y_81 + y_83 + y_88 + y_89 >= 1
 c_1_61: y_2 + y_7 + y_9 + y_23 + y_26 + y_32 + y_37 + y_40 + y_48 + y_54
   + y_60 + y_61 + y_77 + y_79 + y_81 + y_83 + y_84 + y_88 + y_91 + y_99
   >= 1
 c_1_62: y_4 + y_16 + y_22 + y_25 + y_53 + y_55 + y_62 >= 1
 c_1_63: y_0 + y_3 + y_28 + y_30 + y_41 + y_46 + y_51 + y_56 + y_59 + y_63
   + y_67 + y_76 + y_87 + y_98 >= 1
 c_1_64: y_7 + y_9 + y_11 + y_23 + y_26 + y_32 + y_35 + y_38 + y_40 + y_42
   + y_47 + y_60 + y_64 + y_65 + y_70 + y_81 + y_83 + y_84 + y_88 + y_89
   + y_93 >= 1
 c_1_65: y_7 + y_32 + y_35 + y_42 + y_47 + y_59 + y_60 + y_64 + y_65 + y_69
   + y_70 + y_81 + y_83 + y_87 + y_88 + y_89 >= 1
 c_1_66: y_6 + y_8 + y_11 + y_17 + y_19 + y_23 + y_24 + y_29 + y_38 + y_43
   + y_52 + y_58 + y_66 + y_73 + y_78 + y_84 + y_94 >= 1
 c_1_67: y_0 + y_28 + y_30 + y_41 + y_46 + y_51 + y_63 + y_67 + y_76 + y_98
   >= 1
 c_1_68: y_8 + y_24 + y_25 + y_29 + y_36 + y_52 + y_58 + y_68 + y_94 >= 1
 c_1_69: y_35 + y_39 + y_44 + y_59 + y_65 + y_69 + y_70 + y_81 + y_83
   + y_87 + y_89 >= 1
 c_1_70: y_7 + y_32 + y_35 + y_47 + y_59 + y_60 + y_64 + y_65 + y_69 + y_70
   + y_81 + y_83 + y_87 + y_88 + y_89 >= 1
 c_1_71: y_1 + y_10 + y_14 + y_15 + y_18 + y_34 + y_45 + y_54 + y_57 + y_71
   + y_91 + y_92 + y_95 + y_99 >= 1
 c_1_72: y_4 + y_13 + y_22 + y_27 + y_31 + y_39 + y_44 + y_72 + y_74 + y_82
   + y_86 + y_96 >= 1
 c_1_73: y_5 + y_17 + y_19 + y_20 + y_29 + y_33 + y_49 + y_66 + y_73 + y_85
   >= 1
 c_1_74: y_4 + y_13 + y_22 + y_27 + y_31 + y_39 + y_44 + y_72 + y_74 + y_82
   + y_86 + y_96 >= 1
 c_1_75: y_34 + y_75 + y_90 + y_97 >= 1
 c_1_76: y_0 + y_28 + y_30 + y_41 + y_46 + y_51 + y_63 + y_67 + y_76 + y_98
   >= 1
 c_1_77: y_2 + y_3 + y_7 + y_9 + y_26 + y_32 + y_40 + y_48 + y_54 + y_60
   + y_61 + y_77 + y_79 + y_81 + y_83 + y_88 >= 1
 c_1_78: y_6 + y_9 + y_11 + y_17 + y_23 + y_24 + y_26 + y_37 + y_38 + y_40
   + y_43 + y_52 + y_66 + y_78 + y_84 + y_91 + y_93 + y_94 >= 1
 c_1_79: y_1 + y_2 + y_3 + y_9 + y_32 + y_34 + y_48 + y_54 + y_61 + y_77
   + y_79 + y_90 + y_91 + y_99 >= 1
 c_1_80: y_6 + y_17 + y_33 + y_50 + y_80 >= 1
 c_1_81: y_7 + y_32 + y_35 + y_47 + y_59 + y_60 + y_61 + y_64 + y_65 + y_69
   + y_70 + y_77 + y_81 + y_83 + y_87 + y_88 + y_89 >= 1
 c_1_82: y_4 + y_13 + y_22 + y_27 + y_31 + y_42 + y_44 + y_53 + y_72 + y_74
   + y_82 + y_86 + y_96 >= 1
 c_1_83: y_7 + y_9 + y_32 + y_35 + y_47 + y_59 + y_60 + y_61 + y_64 + y_65
   + y_69 + y_70 + y_77 + y_81 + y_83 + y_87 + y_88 + y_89 >= 1
 c_1_84: y_7 + y_9 + y_11 + y_23 + y_26 + y_32 + y_37 + y_40 + y_43 + y_54
   + y_61 + y_64 + y_66 + y_78 + y_84 + y_88 + y_91 + y_93 >= 1
 c_1_85: y_5 + y_20 + y_33 + y_49 + y_73 + y_85 >= 1
 c_1_86: y_13 + y_22 + y_27 + y_31 + y_39 + y_42 + y_44 + y_72 + y_74
   + y_82 + y_86 + y_96 >= 1
 c_1_87: y_35 + y_56 + y_59 + y_63 + y_65 + y_69 + y_70 + y_81 + y_83
   + y_87 + y_89 >= 1
 c_1_88: y_7 + y_9 + y_23 + y_26 + y_32 + y_35 + y_40 + y_47 + y_48 + y_60
   + y_61 + y_64 + y_65 + y_70 + y_77 + y_81 + y_83 + y_84 + y_88 + y_89
   >= 1
 c_1_89: y_32 + y_35 + y_47 + y_59 + y_60 + y_64 + y_65 + y_69 + y_70
   + y_81 + y_83 + y_87 + y_88 + y_89 >= 1
 c_1_90: y_2 + y_3 + y_34 + y_46 + y_75 + y_79 + y_90 + y_97 >= 1
 c_1_91: y_1 + y_6 + y_9 + y_10 + y_26 + y_37 + y_40 + y_54 + y_61 + y_71
   + y_78 + y_79 + y_84 + y_91 + y_92 + y_99 >= 1
 c_1_92: y_1 + y_6 + y_10 + y_14 + y_15 + y_37 + y_45 + y_54 + y_71 + y_91
   + y_92 + y_95 + y_99 >= 1
 c_1_93: y_11 + y_23 + y_38 + y_42 + y_43 + y_47 + y_52 + y_53 + y_58
   + y_64 + y_78 + y_84 + y_93 + y_94 >= 1
 c_1_94: y_8 + y_11 + y_23 + y_24 + y_25 + y_29 + y_36 + y_38 + y_43 + y_52
   + y_53 + y_58 + y_66 + y_68 + y_78 + y_93 + y_94 >= 1
 c_1_95: y_14 + y_15 + y_18 + y_45 + y_57 + y_71 + y_92 + y_95 >= 1
 c_1_96: y_4 + y_13 + y_22 + y_27 + y_31 + y_39 + y_42 + y_44 + y_72 + y_74
   + y_82 + y_86 + y_96 >= 1
 c_1_97: y_34 + y_75 + y_90 + y_97 >= 1
 c_1_98: y_0 + y_28 + y_30 + y_41 + y_46 + y_51 + y_63 + y_67 + y_76 + y_98
   >= 1
 c_1_99: y_1 + y_2 + y_10 + y_34 + y_37 + y_45 + y_48 + y_54 + y_61 + y_71
   + y_79 + y_91 + y_92 + y_99 >= 1
Bounds
 Constant = 1
Binaries
 y_0 y_1 y_2 y_3 y_4 y_5 y_6 y_7 y_8 y_9 y_10 y_11 y_12 y_13 y_14 y_15 y_16
 y_17 y_18 y_19 y_20 y_21 y_22 y_23 y_24 y_25 y_26 y_27 y_28 y_29 y_30 y_31
 y_32 y_33 y_34 y_35 y_36 y_37 y_38 y_39 y_40 y_41 y_42 y_43 y_44 y_45 y_46
 y_47 y_48 y_49 y_50 y_51 y_52 y_53 y_54 y_55 y_56 y_57 y_58 y_59 y_60 y_61
 y_62 y_63 y_64 y_65 y_66 y_67 y_68 y_69 y_70 y_71 y_72 y_73 y_74 y_75 y_76
 y_77 y_78 y_79 y_80 y_81 y_82 y_83 y_84 y_85 y_86 y_87 y_88 y_89 y_90 y_91
 y_92 y_93 y_94 y_95 y_96 y_97 y_98 y_99
End
